# PYTHONPATH must include directory above plugin directory.
#     Define either externally or here, then import plugin.
sys.path.insert(0, '../../..')
import hilbert 

molecule h2 {

0 1
         O            0.000000000000     0.000000000000    -0.068516219320
         H            0.000000000000    -0.790689573744     0.543701060715
         H            0.000000000000     0.790689573744     0.543701060715
no_reorient
nocom
symmetry c1
}

set {
  basis cc-pvdz
  scf_type df 
  e_convergence 1e-12
  d_convergence 1e-12 
} 


# w = 2.0 eV
# lambda: 0.05
# coupling g = 0.05 / sqrt(2*w)

set hilbert {
  maxiter 500
  n_photon_states          2
  cavity_frequency         [0.0, 0.0, 0.07349864501573]
  cavity_coupling_strength [0.0, 0.0, 0.130411334821786]

  #n_photon_states          1
  #cavity_frequency         [0.0, 0.0, 0.0]
  #cavity_coupling_strength [0.0, 0.0, 0.0]

  polaritonic_cc_include_u0 true
  polaritonic_cc_include_u1 true
  polaritonic_cc_include_u2 true

  r_convergence 1e-12
}

activate(h2)

set reference uhf
en = energy('polaritonic-uccsd') 

ref = -76.234654403463 #-76.234654392333 #-76.234653553147
compare_values(ref, en, 8, "UCCSD total energy") # TEST
