#! MCPDFT

memory 1gb

sys.path.insert(0, '../../..')
import hilbert

molecule n2 {
0 1
n
n 1 1.1
}

set {
  basis cc-pvdz
  scf_type df
  d_convergence      1e-10
  maxiter 500
  restricted_docc [ 2, 0, 0, 0, 0, 2, 0, 0 ]
  active          [ 1, 0, 1, 1, 0, 1, 1, 1 ]
}

set hilbert {

  positivity dqg
  opdm_write_full true
  tpdm_write_full true
  constrain_spin true
  r_convergence  1e-5
  e_convergence  1e-5
  cg_convergence 1e-6
  maxiter 1000000

  optimize_orbitals true
  mu_update_frequency 500

  mcpdft_reference v2rdm
  mcpdft_type df
  mcpdft_functional blyp
  mcpdft_method mcpdft
}

# run v2rdm-casscf
en,wfn = energy('v2rdm-casscf', return_wfn=True)

refv2rdm = -109.094406531122
compare_values(refv2rdm, variable("CURRENT ENERGY"), 5, "v2RDM total energy") # TEST

# reference should be uks in mcpdft
set  reference uks

# pass v2rdm-casscf wavefunction object into mcpdft
energy('mcpdft',ref_wfn=wfn)

refmcpdft = -109.483557161585
compare_values(refmcpdft, variable("CURRENT ENERGY"), 5, "MC-PDFT total energy") # TEST
