sys.path.insert(0, '../../../')
import math
import hilbert

QED_EOMCCSD_21_STO_3G = [0.000000000000,
                         0.099795431914,
                         0.124631568356,
                         0.224504522083,
                         0.420761912889,
                         0.447172807469,
                         0.514304178389,
                         0.521274217371,
                         0.536658724529,
                         0.548219015641]

molecule {
  0 1

  O            0.000000000000     0.000000000000    -0.065655108083
  H            0.000000000000    -0.757365949175     0.520997104927
  H            0.000000000000     0.757365949175     0.520997104927
  no_reorient 
  no_com
  symmetry c1
}

set {
  basis sto-3g
  
  scf_type cd 
  cholesky_tolerance 1e-12
  
  e_convergence 1e-10
  d_convergence 1e-10
  r_convergence 1e-8
}
 
lam = 0.05 # coupling factor (this value is for a 0.74 nm³ cavity)
w = 0.1 # frequency of the cavity mode
g = (lam / math.sqrt(2.0 * w)) # coupling strength
set hilbert {
  cavity_frequency         $w
  cavity_coupling_strength [0.0, 0.0, $g]
  
  QED_USE_RELAXED_ORBITALS  true # do relax the SCF orbitals within the cavity
  
  NUMBER_ROOTS                10 # number of excited states to compute
  MAXDIM                       8 # maximum dimension of the EOM-CC subspace (multiplied by NUMBER_ROOTS)
  INDIM                        4 # initial dimension of the EOM-CC subspace (multiplied by NUMBER_ROOTS)
  
  EOM_MAXITER                250 # maximum number of iterations for the EOM-CC iterations
  MAD_NUM_THREADS              1 # the number of MADNESS threads to use with mpirun 
                                 # Note: if not using mpi or using eom, set this to 1 for best performanc
  TILE_SIZE                   -1 # the spacing between tiles in a tiledarray (-1 places all data on a single tile)
                                 # Note: if not using mpi or using eom, set this to -1 for best performance
}

# memory for Psi4 (note: this is for the integrals, not the CC calculation which does not restrict memory usage)
memory 1000 MB

set hilbert EOM_TYPE EA
en, wfn = energy('eom-qed-ccsd-21', return_wfn=True) # EOM-EA-QED-CCSD-21 w/ TiledArray

print_variables()

for n, ref in enumerate(QED_EOMCCSD_21_STO_3G):
    ex_en = psi4.variable(f"EOM-EA-QED-CCSD-21 ROOT 0 -> ROOT {n} EXCITATION ENERGY")
    compare_values(ref,ex_en, 6, f"QED-EA-EOMCCSD-21 excitation energy {n}")
