# PYTHONPATH must include directory above plugin directory.
#     Define either externally or here, then import plugin.
sys.path.insert(0, '../../..')
import hilbert

molecule bodipy {

 0 1
 H  0.000000000000  0.510781068891 -4.463503536214 
 H -0.000000000000  0.510781068891  4.463503536214 
 H  0.000000000000  2.685243799000 -2.846156253165 
 H  0.000000000000 -1.651573074214 -2.804615540994 
 H -0.000000000000 -1.651573074214  2.804615540994 
 H -0.000000000000  2.685243799000  2.846156253165 
 H  0.000000000000  2.927100007706 -0.000000000000 
 C  0.000000000000  0.529718349257 -3.382475237561 
 C -0.000000000000  0.529718349257  3.382475237561 
 C  0.000000000000  1.643095591630 -2.554386695392 
 C -0.000000000000  1.643095591630  2.554386695392 
 C  0.000000000000 -0.602958054613 -2.538094682553 
 C -0.000000000000 -0.602958054613  2.538094682553 
 C  0.000000000000  1.166008889859 -1.216987365738 
 C -0.000000000000  1.166008889859  1.216987365738 
 C -0.000000000000  1.841119066973  0.000000000000 
 N  0.000000000000 -0.228224731897 -1.251887963894 
 N -0.000000000000 -0.228224731897  1.251887963894 
 B  0.000000000000 -1.183680802631  0.000000000000 
 F  1.143257644405 -1.957903053471  0.000000000000 
 F -1.143257644405 -1.957903053471 -0.000000000000 

no_reorient
nocom
symmetry c1
}

set {
  basis 6-31g 
  scf_type df 
  e_convergence 1e-12 
  d_convergence 1e-12 
} 

set hilbert {
  n_photon_states    20 
  cavity_frequency   [0.122939448091,0.122939448091,0.122939448091] 
  cavity_tdm         [192.0,192.0,192.0] 
  cavity_coordinates [0.0,0.0,204.090406767] 
}

energy('polaritonic-rhf') 
