# PYTHONPATH must include directory above plugin directory.
#     Define either externally or here, then import plugin.
sys.path.insert(0, '../../..')
import hilbert

molecule h2 {

h 0.0 0.0 0.0
h 0.0 0.0 r

no_reorient
nocom
symmetry c1
}

set {
  basis cc-pvqz
  scf_type df 
  e_convergence 1e-8
  d_convergence 1e-8 
} 


# freq: w from CIS
# lambda: 0.05
# coupling g = 0.05 / sqrt(2*w)

dz: 0.513666198085
qz: 0.495589583372
set hilbert {
  maxiter 500
  n_photon_states          2
  #dz
  #cavity_frequency         [0.0, 0.0, 0.513666198085]
  #cavity_coupling_strength [0.0, 0.0, 0.049330385869764]
  #qz
  cavity_frequency         [0.0, 0.0, 0.495589583372]
  cavity_coupling_strength [0.0, 0.0, 0.050221990521748]
  #n_photon_states          1
  #cavity_frequency         [0.0, 0.0, 0.0]
  #cavity_coupling_strength [0.0, 0.0, 0.0]
}

activate(h2)

#h2.r = 0.76
#energy('polaritonic-rhf') 
for r in range (0,261):
    myr = 0.4 + 0.01 * r
    h2.r = myr
    #print(myr)
    energy('polaritonic-rhf') 
